NAME: bip_50_5
TYPE: TSP
COMMENT: bip_50_5
DIMENSION: 50
EDGE_WEIGHT_TYPE: EUC_2D
NODE_COORD_SECTION
1 40 30
2 40 11
3 86 83
4 86 53
5 57 98
6 38 23
7 62 70
8 80 49
9 40 58
10 87 1
11 10 21
12 34 24
13 22 90
14 75 55
15 5 43
16 81 84
17 49 76
18 95 85
19 24 32
20 29 52
21 24 17
22 15 48
23 4 38
24 38 11
25 99 71
26 486 470
27 458 486
28 417 498
29 497 427
30 405 408
31 401 417
32 479 449
33 488 433
34 463 472
35 469 462
36 446 446
37 495 483
38 499 437
39 414 408
40 490 451
41 495 473
42 438 443
43 443 427
44 485 469
45 401 427
46 495 491
47 442 427
48 499 480
49 495 497
50 478 435
